Gurobi 12.0.3:   lim:time = 14400

  mip:bestbound = 1

Set parameter LogToConsole to value 1

  tech:outlev = 1

Set parameter Cuts to value 3

  cut:cuts = 3

Set parameter Presolve to value 2

  pre:solve = 2

Set parameter MIPFocus to value 2

  mip:focus = 2

Set parameter Symmetry to value 2

  mip:symmetry = 2

Set parameter InfUnbdInfo to value 1

Gurobi Optimizer version 12.0.3 build v12.0.3rc0 (win64 - Windows 10.0 (19045.2))



CPU model: Intel(R) Core(TM) i7-10700 CPU @ 2.90GHz, instruction set [SSE2|AVX|AVX2]

Thread count: 8 physical cores, 16 logical processors, using up to 16 threads



Non-default parameters:

TimeLimit  14400

MIPFocus  2

Symmetry  2

Cuts  3

InfUnbdInfo  1

Presolve  2



Optimize a model with 208 rows, 216 columns and 1206 nonzeros

Model fingerprint: 0x1dc9380c

Model has 2 quadratic constraints

Variable types: 23 continuous, 193 integer (0 binary)

Coefficient statistics:

  Matrix range     [1e+00, 1e+05]

  QMatrix range    [1e+00, 1e+00]

  QLMatrix range   [1e+01, 2e+01]

  Objective range  [3e+00, 1e+02]

  Bounds range     [1e+00, 1e+02]

  RHS range        [1e+00, 1e+05]

  QRHS range       [1e+02, 1e+02]

Presolve removed 18 rows and 29 columns

Presolve time: 0.02s

Presolved: 272 rows, 267 columns, 1658 nonzeros

Variable types: 11 continuous, 256 integer (204 binary)

Found heuristic solution: objective 302.1500000

Root relaxation presolve removed 37 rows and 0 columns

Root relaxation presolved: 202 rows, 261 columns, 1463 nonzeros





Root relaxation: objective 1.601484e+02, 46 iterations, 0.00 seconds (0.00 work units)



    Nodes    |    Current Node    |     Objective Bounds      |     Work

 Expl Unexpl |  Obj  Depth IntInf | Incumbent    BestBd   Gap | It/Node Time



     0     0  160.14844    0   31  302.15000  160.14844  47.0%     -    0s

H    0     0                     281.6300000  160.14844  43.1%     -    0s

H    0     0                     267.2000000  179.77089  32.7%     -    0s

     0     0  181.82000    0   26  267.20000  181.82000  32.0%     -    0s

H    0     0                     245.8600000  181.82000  26.0%     -    0s

     0     0  181.82000    0   24  245.86000  181.82000  26.0%     -    0s

     0     0  181.82000    0   17  245.86000  181.82000  26.0%     -    0s

     0     0  185.16120    0   12  245.86000  185.16120  24.7%     -    0s

     0     0  186.98430    0   28  245.86000  186.98430  23.9%     -    0s

     0     0  188.05579    0   28  245.86000  188.05579  23.5%     -    0s

     0     0  191.79419    0   26  245.86000  191.79419  22.0%     -    0s

     0     0  191.80980    0   34  245.86000  191.80980  22.0%     -    0s

     0     0  192.19846    0   36  245.86000  192.19846  21.8%     -    0s

     0     0  222.98000    0   40  245.86000  222.98000  9.31%     -    0s

     0     0  222.98000    0   40  245.86000  222.98000  9.31%     -    0s

     0     0  222.98000    0   40  245.86000  222.98000  9.31%     -    0s

     0     0  222.98000    0   36  245.86000  222.98000  9.31%     -    0s

     0     0  222.98000    0   50  245.86000  222.98000  9.31%     -    0s

     0     0  222.98000    0   47  245.86000  222.98000  9.31%     -    0s

     0     0  222.98000    0   49  245.86000  222.98000  9.31%     -    0s

     0     0  222.98000    0   46  245.86000  222.98000  9.31%     -    0s

     0     2  222.98000    0   46  245.86000  222.98000  9.31%     -    0s



Cutting planes:

  Learned: 11

  Gomory: 24

  Cover: 5

  Implied bound: 11

  Projected implied bound: 2

  Clique: 1

  MIR: 23

  StrongCG: 5

  Flow cover: 92

  Inf proof: 2

  Zero half: 34

  RLT: 37



Explored 1252 nodes (9580 simplex iterations) in 0.73 seconds (0.39 work units)

Thread count was 16 (of 16 available processors)



Solution count 4: 245.86 267.2 281.63 302.15 



Optimal solution found (tolerance 1.00e-04)

Best objective 2.458600000000e+02, best bound 2.458600000000e+02, gap 0.0000%



AMPL MP initial flat model has 216 variables (0 integer, 193 binary);

Objectives: 1 linear; 

Constraints:  208 linear; 2 quadratic;



AMPL MP final model has 216 variables (0 integer, 193 binary);

Objectives: 1 linear; 

Constraints:  208 linear; 2 quadratic;





-----RESULTS INFO-----
running_time:  0.781
TC.best_bound:  245.86
TC:  245.86
MIP Gap (%):  0
=== Vehicle Routes ===
Vehicle 1: 0 → 8
Vehicle 1: 1 → 14
Vehicle 1: 2 → 1
Vehicle 1: 6 → 7
Vehicle 1: 7 → 2
Vehicle 1: 8 → 6
Vehicle 2: 0 → 14

=== Full Vehicle Routes ===
Vehicle 1: 0 → 8 → 6 → 7 → 2 → 1 → 0 (77<100)
Vehicle 2: 0 → 0 (0<100)
Arc used by MRT line: y variables:
Customer assigment to PL: u variables:
3 7
4 8
5 7
Node is served by regular vehicle: g variables:
1
2
6
7
8
Customer assigment to Home delivery: gm variables:
1
2
6
Node total demands: ntd variables:
1 13 1
2 12 1
5 0 0
6 10 1
13 0 0
7 21 1
8 21 1
9 0 0
10 0 0
11 0 0
12 0 0
Customer's demand delivered to PL: l variables:
3
4
5
Lockers load <= capacity:
0 <= 81
21 <= 98
21 <= 84
0 <= 72
0 <= 91
0 <= 89
0 <= 74
